p cnf 252 1448
1 0
-2 0
-3 0
-4 0
-5 0
-6 0
-7 0
43 8 0
-43 -8 0
-8 -9 0
-8 -10 0
-8 -11 0
-8 -12 0
-8 -13 0
-8 -14 0
-9 -10 0
-9 -11 0
-9 -12 0
-9 -13 0
-9 -14 0
-10 -11 0
-10 -12 0
-10 -13 0
-10 -14 0
-11 -12 0
-11 -13 0
-11 -14 0
-12 -13 0
-12 -14 0
-13 -14 0
-8 50 1 0
-8 50 15 0
-8 1 15 0
-9 51 2 0
-9 51 16 0
-9 2 16 0
-10 52 3 0
-10 52 17 0
-10 3 17 0
-11 53 4 0
-11 53 18 0
-11 4 18 0
-12 54 5 0
-12 54 19 0
-12 5 19 0
-13 55 6 0
-13 55 20 0
-13 6 20 0
-14 56 7 0
-14 56 21 0
-14 7 21 0
-8 -50 -1 -15 0
-9 -51 -2 -16 0
-10 -52 -3 -17 0
-11 -53 -4 -18 0
-12 -54 -5 -19 0
-13 -55 -6 -20 0
-14 -56 -7 -21 0
16 0
-15 0
-17 0
-18 0
-19 0
-20 0
-21 0
58 9 23 0
-58 -9 0
-58 -23 0
-9 -23 0
-22 -23 0
-22 -24 0
-22 -25 0
-22 -26 0
-22 -27 0
-22 -28 0
-23 -24 0
-23 -25 0
-23 -26 0
-23 -27 0
-23 -28 0
-24 -25 0
-24 -26 0
-24 -27 0
-24 -28 0
-25 -26 0
-25 -27 0
-25 -28 0
-26 -27 0
-26 -28 0
-27 -28 0
-22 64 15 0
-22 64 29 0
-22 15 29 0
-23 65 16 0
-23 65 30 0
-23 16 30 0
-24 66 17 0
-24 66 31 0
-24 17 31 0
-25 67 18 0
-25 67 32 0
-25 18 32 0
-26 68 19 0
-26 68 33 0
-26 19 33 0
-27 69 20 0
-27 69 34 0
-27 20 34 0
-28 70 21 0
-28 70 35 0
-28 21 35 0
-22 -64 -15 -29 0
-23 -65 -16 -30 0
-24 -66 -17 -31 0
-25 -67 -18 -32 0
-26 -68 -19 -33 0
-27 -69 -20 -34 0
-28 -70 -21 -35 0
-29 -30 0
-29 -31 0
-29 -32 0
-29 -33 0
-29 -34 0
-29 -35 0
-30 -31 0
-30 -32 0
-30 -33 0
-30 -34 0
-30 -35 0
-31 -32 0
-31 -33 0
-31 -34 0
-31 -35 0
-32 -33 0
-32 -34 0
-32 -35 0
-33 -34 0
-33 -35 0
-34 -35 0
-29 71 22 0
-29 71 36 0
-29 22 36 0
-30 72 23 0
-30 72 37 0
-30 23 37 0
-31 73 24 0
-31 73 38 0
-31 24 38 0
-32 74 25 0
-32 74 39 0
-32 25 39 0
-33 75 26 0
-33 75 40 0
-33 26 40 0
-34 76 27 0
-34 76 41 0
-34 27 41 0
-35 77 28 0
-35 77 42 0
-35 28 42 0
-29 -71 -22 -36 0
-30 -72 -23 -37 0
-31 -73 -24 -38 0
-32 -74 -25 -39 0
-33 -75 -26 -40 0
-34 -76 -27 -41 0
-35 -77 -28 -42 0
-36 -37 0
-36 -38 0
-36 -39 0
-36 -40 0
-36 -41 0
-36 -42 0
-37 -38 0
-37 -39 0
-37 -40 0
-37 -41 0
-37 -42 0
-38 -39 0
-38 -40 0
-38 -41 0
-38 -42 0
-39 -40 0
-39 -41 0
-39 -42 0
-40 -41 0
-40 -42 0
-41 -42 0
-36 78 0
-36 29 0
-37 79 0
-37 30 0
-38 80 0
-38 31 0
-39 81 0
-39 32 0
-40 82 0
-40 33 0
-41 83 0
-41 34 0
-42 84 0
-42 35 0
46 0
-43 0
-44 0
-45 0
-47 0
-48 0
-49 0
88 4 53 0
-88 -4 0
-88 -53 0
-4 -53 0
-50 -51 0
-50 -52 0
-50 -53 0
-50 -54 0
-50 -55 0
-50 -56 0
-51 -52 0
-51 -53 0
-51 -54 0
-51 -55 0
-51 -56 0
-52 -53 0
-52 -54 0
-52 -55 0
-52 -56 0
-53 -54 0
-53 -55 0
-53 -56 0
-54 -55 0
-54 -56 0
-55 -56 0
-50 92 8 57 0
-50 92 8 43 0
-50 92 57 43 0
-50 8 57 43 0
-51 93 9 58 0
-51 93 9 44 0
-51 93 58 44 0
-51 9 58 44 0
-52 94 10 59 0
-52 94 10 45 0
-52 94 59 45 0
-52 10 59 45 0
-53 95 11 60 0
-53 95 11 46 0
-53 95 60 46 0
-53 11 60 46 0
-54 96 12 61 0
-54 96 12 47 0
-54 96 61 47 0
-54 12 61 47 0
-55 97 13 62 0
-55 97 13 48 0
-55 97 62 48 0
-55 13 62 48 0
-56 98 14 63 0
-56 98 14 49 0
-56 98 63 49 0
-56 14 63 49 0
-50 -92 -8 -57 0
-50 -92 -8 -43 0
-50 -92 -57 -43 0
-50 -8 -57 -43 0
-51 -93 -9 -58 0
-51 -93 -9 -44 0
-51 -93 -58 -44 0
-51 -9 -58 -44 0
-52 -94 -10 -59 0
-52 -94 -10 -45 0
-52 -94 -59 -45 0
-52 -10 -59 -45 0
-53 -95 -11 -60 0
-53 -95 -11 -46 0
-53 -95 -60 -46 0
-53 -11 -60 -46 0
-54 -96 -12 -61 0
-54 -96 -12 -47 0
-54 -96 -61 -47 0
-54 -12 -61 -47 0
-55 -97 -13 -62 0
-55 -97 -13 -48 0
-55 -97 -62 -48 0
-55 -13 -62 -48 0
-56 -98 -14 -63 0
-56 -98 -14 -49 0
-56 -98 -63 -49 0
-56 -14 -63 -49 0
-57 -58 0
-57 -59 0
-57 -60 0
-57 -61 0
-57 -62 0
-57 -63 0
-58 -59 0
-58 -60 0
-58 -61 0
-58 -62 0
-58 -63 0
-59 -60 0
-59 -61 0
-59 -62 0
-59 -63 0
-60 -61 0
-60 -62 0
-60 -63 0
-61 -62 0
-61 -63 0
-62 -63 0
-57 99 15 64 0
-57 99 15 50 0
-57 99 64 50 0
-57 15 64 50 0
-58 100 16 65 0
-58 100 16 51 0
-58 100 65 51 0
-58 16 65 51 0
-59 101 17 66 0
-59 101 17 52 0
-59 101 66 52 0
-59 17 66 52 0
-60 102 18 67 0
-60 102 18 53 0
-60 102 67 53 0
-60 18 67 53 0
-61 103 19 68 0
-61 103 19 54 0
-61 103 68 54 0
-61 19 68 54 0
-62 104 20 69 0
-62 104 20 55 0
-62 104 69 55 0
-62 20 69 55 0
-63 105 21 70 0
-63 105 21 56 0
-63 105 70 56 0
-63 21 70 56 0
-57 -99 -15 -64 0
-57 -99 -15 -50 0
-57 -99 -64 -50 0
-57 -15 -64 -50 0
-58 -100 -16 -65 0
-58 -100 -16 -51 0
-58 -100 -65 -51 0
-58 -16 -65 -51 0
-59 -101 -17 -66 0
-59 -101 -17 -52 0
-59 -101 -66 -52 0
-59 -17 -66 -52 0
-60 -102 -18 -67 0
-60 -102 -18 -53 0
-60 -102 -67 -53 0
-60 -18 -67 -53 0
-61 -103 -19 -68 0
-61 -103 -19 -54 0
-61 -103 -68 -54 0
-61 -19 -68 -54 0
-62 -104 -20 -69 0
-62 -104 -20 -55 0
-62 -104 -69 -55 0
-62 -20 -69 -55 0
-63 -105 -21 -70 0
-63 -105 -21 -56 0
-63 -105 -70 -56 0
-63 -21 -70 -56 0
-64 -65 0
-64 -66 0
-64 -67 0
-64 -68 0
-64 -69 0
-64 -70 0
-65 -66 0
-65 -67 0
-65 -68 0
-65 -69 0
-65 -70 0
-66 -67 0
-66 -68 0
-66 -69 0
-66 -70 0
-67 -68 0
-67 -69 0
-67 -70 0
-68 -69 0
-68 -70 0
-69 -70 0
-64 106 22 71 0
-64 106 22 57 0
-64 106 71 57 0
-64 22 71 57 0
-65 107 23 72 0
-65 107 23 58 0
-65 107 72 58 0
-65 23 72 58 0
-66 108 24 73 0
-66 108 24 59 0
-66 108 73 59 0
-66 24 73 59 0
-67 109 25 74 0
-67 109 25 60 0
-67 109 74 60 0
-67 25 74 60 0
-68 110 26 75 0
-68 110 26 61 0
-68 110 75 61 0
-68 26 75 61 0
-69 111 27 76 0
-69 111 27 62 0
-69 111 76 62 0
-69 27 76 62 0
-70 112 28 77 0
-70 112 28 63 0
-70 112 77 63 0
-70 28 77 63 0
-64 -106 -22 -71 0
-64 -106 -22 -57 0
-64 -106 -71 -57 0
-64 -22 -71 -57 0
-65 -107 -23 -72 0
-65 -107 -23 -58 0
-65 -107 -72 -58 0
-65 -23 -72 -58 0
-66 -108 -24 -73 0
-66 -108 -24 -59 0
-66 -108 -73 -59 0
-66 -24 -73 -59 0
-67 -109 -25 -74 0
-67 -109 -25 -60 0
-67 -109 -74 -60 0
-67 -25 -74 -60 0
-68 -110 -26 -75 0
-68 -110 -26 -61 0
-68 -110 -75 -61 0
-68 -26 -75 -61 0
-69 -111 -27 -76 0
-69 -111 -27 -62 0
-69 -111 -76 -62 0
-69 -27 -76 -62 0
-70 -112 -28 -77 0
-70 -112 -28 -63 0
-70 -112 -77 -63 0
-70 -28 -77 -63 0
71 0
-72 0
-73 0
-74 0
-75 0
-76 0
-77 0
113 29 78 64 0
-113 -29 0
-113 -78 0
-113 -64 0
-29 -78 0
-29 -64 0
-78 -64 0
-78 -79 0
-78 -80 0
-78 -81 0
-78 -82 0
-78 -83 0
-78 -84 0
-79 -80 0
-79 -81 0
-79 -82 0
-79 -83 0
-79 -84 0
-80 -81 0
-80 -82 0
-80 -83 0
-80 -84 0
-81 -82 0
-81 -83 0
-81 -84 0
-82 -83 0
-82 -84 0
-83 -84 0
-78 120 36 0
-78 120 71 0
-78 36 71 0
-79 121 37 0
-79 121 72 0
-79 37 72 0
-80 122 38 0
-80 122 73 0
-80 38 73 0
-81 123 39 0
-81 123 74 0
-81 39 74 0
-82 124 40 0
-82 124 75 0
-82 40 75 0
-83 125 41 0
-83 125 76 0
-83 41 76 0
-84 126 42 0
-84 126 77 0
-84 42 77 0
-78 -120 -36 -71 0
-79 -121 -37 -72 0
-80 -122 -38 -73 0
-81 -123 -39 -74 0
-82 -124 -40 -75 0
-83 -125 -41 -76 0
-84 -126 -42 -77 0
-85 -86 0
-85 -87 0
-85 -88 0
-85 -89 0
-85 -90 0
-85 -91 0
-86 -87 0
-86 -88 0
-86 -89 0
-86 -90 0
-86 -91 0
-87 -88 0
-87 -89 0
-87 -90 0
-87 -91 0
-88 -89 0
-88 -90 0
-88 -91 0
-89 -90 0
-89 -91 0
-90 -91 0
-85 127 43 0
-85 127 92 0
-85 43 92 0
-86 128 44 0
-86 128 93 0
-86 44 93 0
-87 129 45 0
-87 129 94 0
-87 45 94 0
-88 130 46 0
-88 130 95 0
-88 46 95 0
-89 131 47 0
-89 131 96 0
-89 47 96 0
-90 132 48 0
-90 132 97 0
-90 48 97 0
-91 133 49 0
-91 133 98 0
-91 49 98 0
-85 -127 -43 -92 0
-86 -128 -44 -93 0
-87 -129 -45 -94 0
-88 -130 -46 -95 0
-89 -131 -47 -96 0
-90 -132 -48 -97 0
-91 -133 -49 -98 0
95 0
-92 0
-93 0
-94 0
-96 0
-97 0
-98 0
137 53 102 88 0
-137 -53 0
-137 -102 0
-137 -88 0
-53 -102 0
-53 -88 0
-102 -88 0
101 0
-99 0
-100 0
-102 0
-103 0
-104 0
-105 0
143 59 108 94 0
-143 -59 0
-143 -108 0
-143 -94 0
-59 -108 0
-59 -94 0
-108 -94 0
-106 -107 0
-106 -108 0
-106 -109 0
-106 -110 0
-106 -111 0
-106 -112 0
-107 -108 0
-107 -109 0
-107 -110 0
-107 -111 0
-107 -112 0
-108 -109 0
-108 -110 0
-108 -111 0
-108 -112 0
-109 -110 0
-109 -111 0
-109 -112 0
-110 -111 0
-110 -112 0
-111 -112 0
-106 148 64 113 0
-106 148 64 99 0
-106 148 113 99 0
-106 64 113 99 0
-107 149 65 114 0
-107 149 65 100 0
-107 149 114 100 0
-107 65 114 100 0
-108 150 66 115 0
-108 150 66 101 0
-108 150 115 101 0
-108 66 115 101 0
-109 151 67 116 0
-109 151 67 102 0
-109 151 116 102 0
-109 67 116 102 0
-110 152 68 117 0
-110 152 68 103 0
-110 152 117 103 0
-110 68 117 103 0
-111 153 69 118 0
-111 153 69 104 0
-111 153 118 104 0
-111 69 118 104 0
-112 154 70 119 0
-112 154 70 105 0
-112 154 119 105 0
-112 70 119 105 0
-106 -148 -64 -113 0
-106 -148 -64 -99 0
-106 -148 -113 -99 0
-106 -64 -113 -99 0
-107 -149 -65 -114 0
-107 -149 -65 -100 0
-107 -149 -114 -100 0
-107 -65 -114 -100 0
-108 -150 -66 -115 0
-108 -150 -66 -101 0
-108 -150 -115 -101 0
-108 -66 -115 -101 0
-109 -151 -67 -116 0
-109 -151 -67 -102 0
-109 -151 -116 -102 0
-109 -67 -116 -102 0
-110 -152 -68 -117 0
-110 -152 -68 -103 0
-110 -152 -117 -103 0
-110 -68 -117 -103 0
-111 -153 -69 -118 0
-111 -153 -69 -104 0
-111 -153 -118 -104 0
-111 -69 -118 -104 0
-112 -154 -70 -119 0
-112 -154 -70 -105 0
-112 -154 -119 -105 0
-112 -70 -119 -105 0
115 0
-113 0
-114 0
-116 0
-117 0
-118 0
-119 0
157 73 122 108 0
-157 -73 0
-157 -122 0
-157 -108 0
-73 -122 0
-73 -108 0
-122 -108 0
-120 -121 0
-120 -122 0
-120 -123 0
-120 -124 0
-120 -125 0
-120 -126 0
-121 -122 0
-121 -123 0
-121 -124 0
-121 -125 0
-121 -126 0
-122 -123 0
-122 -124 0
-122 -125 0
-122 -126 0
-123 -124 0
-123 -125 0
-123 -126 0
-124 -125 0
-124 -126 0
-125 -126 0
-120 162 78 0
-120 162 113 0
-120 78 113 0
-121 163 79 0
-121 163 114 0
-121 79 114 0
-122 164 80 0
-122 164 115 0
-122 80 115 0
-123 165 81 0
-123 165 116 0
-123 81 116 0
-124 166 82 0
-124 166 117 0
-124 82 117 0
-125 167 83 0
-125 167 118 0
-125 83 118 0
-126 168 84 0
-126 168 119 0
-126 84 119 0
-120 -162 -78 -113 0
-121 -163 -79 -114 0
-122 -164 -80 -115 0
-123 -165 -81 -116 0
-124 -166 -82 -117 0
-125 -167 -83 -118 0
-126 -168 -84 -119 0
-127 -128 0
-127 -129 0
-127 -130 0
-127 -131 0
-127 -132 0
-127 -133 0
-128 -129 0
-128 -130 0
-128 -131 0
-128 -132 0
-128 -133 0
-129 -130 0
-129 -131 0
-129 -132 0
-129 -133 0
-130 -131 0
-130 -132 0
-130 -133 0
-131 -132 0
-131 -133 0
-132 -133 0
-127 169 85 0
-127 169 134 0
-127 85 134 0
-128 170 86 0
-128 170 135 0
-128 86 135 0
-129 171 87 0
-129 171 136 0
-129 87 136 0
-130 172 88 0
-130 172 137 0
-130 88 137 0
-131 173 89 0
-131 173 138 0
-131 89 138 0
-132 174 90 0
-132 174 139 0
-132 90 139 0
-133 175 91 0
-133 175 140 0
-133 91 140 0
-127 -169 -85 -134 0
-128 -170 -86 -135 0
-129 -171 -87 -136 0
-130 -172 -88 -137 0
-131 -173 -89 -138 0
-132 -174 -90 -139 0
-133 -175 -91 -140 0
139 0
-134 0
-135 0
-136 0
-137 0
-138 0
-140 0
181 97 146 132 0
-181 -97 0
-181 -146 0
-181 -132 0
-97 -146 0
-97 -132 0
-146 -132 0
147 0
-141 0
-142 0
-143 0
-144 0
-145 0
-146 0
189 105 154 140 0
-189 -105 0
-189 -154 0
-189 -140 0
-105 -154 0
-105 -140 0
-154 -140 0
-148 -149 0
-148 -150 0
-148 -151 0
-148 -152 0
-148 -153 0
-148 -154 0
-149 -150 0
-149 -151 0
-149 -152 0
-149 -153 0
-149 -154 0
-150 -151 0
-150 -152 0
-150 -153 0
-150 -154 0
-151 -152 0
-151 -153 0
-151 -154 0
-152 -153 0
-152 -154 0
-153 -154 0
-148 190 106 155 0
-148 190 106 141 0
-148 190 155 141 0
-148 106 155 141 0
-149 191 107 156 0
-149 191 107 142 0
-149 191 156 142 0
-149 107 156 142 0
-150 192 108 157 0
-150 192 108 143 0
-150 192 157 143 0
-150 108 157 143 0
-151 193 109 158 0
-151 193 109 144 0
-151 193 158 144 0
-151 109 158 144 0
-152 194 110 159 0
-152 194 110 145 0
-152 194 159 145 0
-152 110 159 145 0
-153 195 111 160 0
-153 195 111 146 0
-153 195 160 146 0
-153 111 160 146 0
-154 196 112 161 0
-154 196 112 147 0
-154 196 161 147 0
-154 112 161 147 0
-148 -190 -106 -155 0
-148 -190 -106 -141 0
-148 -190 -155 -141 0
-148 -106 -155 -141 0
-149 -191 -107 -156 0
-149 -191 -107 -142 0
-149 -191 -156 -142 0
-149 -107 -156 -142 0
-150 -192 -108 -157 0
-150 -192 -108 -143 0
-150 -192 -157 -143 0
-150 -108 -157 -143 0
-151 -193 -109 -158 0
-151 -193 -109 -144 0
-151 -193 -158 -144 0
-151 -109 -158 -144 0
-152 -194 -110 -159 0
-152 -194 -110 -145 0
-152 -194 -159 -145 0
-152 -110 -159 -145 0
-153 -195 -111 -160 0
-153 -195 -111 -146 0
-153 -195 -160 -146 0
-153 -111 -160 -146 0
-154 -196 -112 -161 0
-154 -196 -112 -147 0
-154 -196 -161 -147 0
-154 -112 -161 -147 0
-155 -156 0
-155 -157 0
-155 -158 0
-155 -159 0
-155 -160 0
-155 -161 0
-156 -157 0
-156 -158 0
-156 -159 0
-156 -160 0
-156 -161 0
-157 -158 0
-157 -159 0
-157 -160 0
-157 -161 0
-158 -159 0
-158 -160 0
-158 -161 0
-159 -160 0
-159 -161 0
-160 -161 0
-155 197 113 162 0
-155 197 113 148 0
-155 197 162 148 0
-155 113 162 148 0
-156 198 114 163 0
-156 198 114 149 0
-156 198 163 149 0
-156 114 163 149 0
-157 199 115 164 0
-157 199 115 150 0
-157 199 164 150 0
-157 115 164 150 0
-158 200 116 165 0
-158 200 116 151 0
-158 200 165 151 0
-158 116 165 151 0
-159 201 117 166 0
-159 201 117 152 0
-159 201 166 152 0
-159 117 166 152 0
-160 202 118 167 0
-160 202 118 153 0
-160 202 167 153 0
-160 118 167 153 0
-161 203 119 168 0
-161 203 119 154 0
-161 203 168 154 0
-161 119 168 154 0
-155 -197 -113 -162 0
-155 -197 -113 -148 0
-155 -197 -162 -148 0
-155 -113 -162 -148 0
-156 -198 -114 -163 0
-156 -198 -114 -149 0
-156 -198 -163 -149 0
-156 -114 -163 -149 0
-157 -199 -115 -164 0
-157 -199 -115 -150 0
-157 -199 -164 -150 0
-157 -115 -164 -150 0
-158 -200 -116 -165 0
-158 -200 -116 -151 0
-158 -200 -165 -151 0
-158 -116 -165 -151 0
-159 -201 -117 -166 0
-159 -201 -117 -152 0
-159 -201 -166 -152 0
-159 -117 -166 -152 0
-160 -202 -118 -167 0
-160 -202 -118 -153 0
-160 -202 -167 -153 0
-160 -118 -167 -153 0
-161 -203 -119 -168 0
-161 -203 -119 -154 0
-161 -203 -168 -154 0
-161 -119 -168 -154 0
-162 -163 0
-162 -164 0
-162 -165 0
-162 -166 0
-162 -167 0
-162 -168 0
-163 -164 0
-163 -165 0
-163 -166 0
-163 -167 0
-163 -168 0
-164 -165 0
-164 -166 0
-164 -167 0
-164 -168 0
-165 -166 0
-165 -167 0
-165 -168 0
-166 -167 0
-166 -168 0
-167 -168 0
-162 204 120 0
-162 204 155 0
-162 120 155 0
-163 205 121 0
-163 205 156 0
-163 121 156 0
-164 206 122 0
-164 206 157 0
-164 122 157 0
-165 207 123 0
-165 207 158 0
-165 123 158 0
-166 208 124 0
-166 208 159 0
-166 124 159 0
-167 209 125 0
-167 209 160 0
-167 125 160 0
-168 210 126 0
-168 210 161 0
-168 126 161 0
-162 -204 -120 -155 0
-163 -205 -121 -156 0
-164 -206 -122 -157 0
-165 -207 -123 -158 0
-166 -208 -124 -159 0
-167 -209 -125 -160 0
-168 -210 -126 -161 0
-169 -170 0
-169 -171 0
-169 -172 0
-169 -173 0
-169 -174 0
-169 -175 0
-170 -171 0
-170 -172 0
-170 -173 0
-170 -174 0
-170 -175 0
-171 -172 0
-171 -173 0
-171 -174 0
-171 -175 0
-172 -173 0
-172 -174 0
-172 -175 0
-173 -174 0
-173 -175 0
-174 -175 0
-169 211 127 0
-169 211 176 0
-169 127 176 0
-170 212 128 0
-170 212 177 0
-170 128 177 0
-171 213 129 0
-171 213 178 0
-171 129 178 0
-172 214 130 0
-172 214 179 0
-172 130 179 0
-173 215 131 0
-173 215 180 0
-173 131 180 0
-174 216 132 0
-174 216 181 0
-174 132 181 0
-175 217 133 0
-175 217 182 0
-175 133 182 0
-169 -211 -127 -176 0
-170 -212 -128 -177 0
-171 -213 -129 -178 0
-172 -214 -130 -179 0
-173 -215 -131 -180 0
-174 -216 -132 -181 0
-175 -217 -133 -182 0
180 0
-176 0
-177 0
-178 0
-179 0
-181 0
-182 0
222 138 187 173 0
-222 -138 0
-222 -187 0
-222 -173 0
-138 -187 0
-138 -173 0
-187 -173 0
-183 -184 0
-183 -185 0
-183 -186 0
-183 -187 0
-183 -188 0
-183 -189 0
-184 -185 0
-184 -186 0
-184 -187 0
-184 -188 0
-184 -189 0
-185 -186 0
-185 -187 0
-185 -188 0
-185 -189 0
-186 -187 0
-186 -188 0
-186 -189 0
-187 -188 0
-187 -189 0
-188 -189 0
-183 225 141 190 0
-183 225 141 176 0
-183 225 190 176 0
-183 141 190 176 0
-184 226 142 191 0
-184 226 142 177 0
-184 226 191 177 0
-184 142 191 177 0
-185 227 143 192 0
-185 227 143 178 0
-185 227 192 178 0
-185 143 192 178 0
-186 228 144 193 0
-186 228 144 179 0
-186 228 193 179 0
-186 144 193 179 0
-187 229 145 194 0
-187 229 145 180 0
-187 229 194 180 0
-187 145 194 180 0
-188 230 146 195 0
-188 230 146 181 0
-188 230 195 181 0
-188 146 195 181 0
-189 231 147 196 0
-189 231 147 182 0
-189 231 196 182 0
-189 147 196 182 0
-183 -225 -141 -190 0
-183 -225 -141 -176 0
-183 -225 -190 -176 0
-183 -141 -190 -176 0
-184 -226 -142 -191 0
-184 -226 -142 -177 0
-184 -226 -191 -177 0
-184 -142 -191 -177 0
-185 -227 -143 -192 0
-185 -227 -143 -178 0
-185 -227 -192 -178 0
-185 -143 -192 -178 0
-186 -228 -144 -193 0
-186 -228 -144 -179 0
-186 -228 -193 -179 0
-186 -144 -193 -179 0
-187 -229 -145 -194 0
-187 -229 -145 -180 0
-187 -229 -194 -180 0
-187 -145 -194 -180 0
-188 -230 -146 -195 0
-188 -230 -146 -181 0
-188 -230 -195 -181 0
-188 -146 -195 -181 0
-189 -231 -147 -196 0
-189 -231 -147 -182 0
-189 -231 -196 -182 0
-189 -147 -196 -182 0
-190 -191 0
-190 -192 0
-190 -193 0
-190 -194 0
-190 -195 0
-190 -196 0
-191 -192 0
-191 -193 0
-191 -194 0
-191 -195 0
-191 -196 0
-192 -193 0
-192 -194 0
-192 -195 0
-192 -196 0
-193 -194 0
-193 -195 0
-193 -196 0
-194 -195 0
-194 -196 0
-195 -196 0
-190 232 148 197 0
-190 232 148 183 0
-190 232 197 183 0
-190 148 197 183 0
-191 233 149 198 0
-191 233 149 184 0
-191 233 198 184 0
-191 149 198 184 0
-192 234 150 199 0
-192 234 150 185 0
-192 234 199 185 0
-192 150 199 185 0
-193 235 151 200 0
-193 235 151 186 0
-193 235 200 186 0
-193 151 200 186 0
-194 236 152 201 0
-194 236 152 187 0
-194 236 201 187 0
-194 152 201 187 0
-195 237 153 202 0
-195 237 153 188 0
-195 237 202 188 0
-195 153 202 188 0
-196 238 154 203 0
-196 238 154 189 0
-196 238 203 189 0
-196 154 203 189 0
-190 -232 -148 -197 0
-190 -232 -148 -183 0
-190 -232 -197 -183 0
-190 -148 -197 -183 0
-191 -233 -149 -198 0
-191 -233 -149 -184 0
-191 -233 -198 -184 0
-191 -149 -198 -184 0
-192 -234 -150 -199 0
-192 -234 -150 -185 0
-192 -234 -199 -185 0
-192 -150 -199 -185 0
-193 -235 -151 -200 0
-193 -235 -151 -186 0
-193 -235 -200 -186 0
-193 -151 -200 -186 0
-194 -236 -152 -201 0
-194 -236 -152 -187 0
-194 -236 -201 -187 0
-194 -152 -201 -187 0
-195 -237 -153 -202 0
-195 -237 -153 -188 0
-195 -237 -202 -188 0
-195 -153 -202 -188 0
-196 -238 -154 -203 0
-196 -238 -154 -189 0
-196 -238 -203 -189 0
-196 -154 -203 -189 0
203 0
-197 0
-198 0
-199 0
-200 0
-201 0
-202 0
245 161 210 196 0
-245 -161 0
-245 -210 0
-245 -196 0
-161 -210 0
-161 -196 0
-210 -196 0
-204 -205 0
-204 -206 0
-204 -207 0
-204 -208 0
-204 -209 0
-204 -210 0
-205 -206 0
-205 -207 0
-205 -208 0
-205 -209 0
-205 -210 0
-206 -207 0
-206 -208 0
-206 -209 0
-206 -210 0
-207 -208 0
-207 -209 0
-207 -210 0
-208 -209 0
-208 -210 0
-209 -210 0
-204 246 162 0
-204 246 197 0
-204 162 197 0
-205 247 163 0
-205 247 198 0
-205 163 198 0
-206 248 164 0
-206 248 199 0
-206 164 199 0
-207 249 165 0
-207 249 200 0
-207 165 200 0
-208 250 166 0
-208 250 201 0
-208 166 201 0
-209 251 167 0
-209 251 202 0
-209 167 202 0
-210 252 168 0
-210 252 203 0
-210 168 203 0
-204 -246 -162 -197 0
-205 -247 -163 -198 0
-206 -248 -164 -199 0
-207 -249 -165 -200 0
-208 -250 -166 -201 0
-209 -251 -167 -202 0
-210 -252 -168 -203 0
-211 -212 0
-211 -213 0
-211 -214 0
-211 -215 0
-211 -216 0
-211 -217 0
-212 -213 0
-212 -214 0
-212 -215 0
-212 -216 0
-212 -217 0
-213 -214 0
-213 -215 0
-213 -216 0
-213 -217 0
-214 -215 0
-214 -216 0
-214 -217 0
-215 -216 0
-215 -217 0
-216 -217 0
-211 169 0
-211 218 0
-212 170 0
-212 219 0
-213 171 0
-213 220 0
-214 172 0
-214 221 0
-215 173 0
-215 222 0
-216 174 0
-216 223 0
-217 175 0
-217 224 0
-218 -219 0
-218 -220 0
-218 -221 0
-218 -222 0
-218 -223 0
-218 -224 0
-219 -220 0
-219 -221 0
-219 -222 0
-219 -223 0
-219 -224 0
-220 -221 0
-220 -222 0
-220 -223 0
-220 -224 0
-221 -222 0
-221 -223 0
-221 -224 0
-222 -223 0
-222 -224 0
-223 -224 0
-218 211 176 0
-218 176 225 0
-218 211 225 0
-219 212 177 0
-219 177 226 0
-219 212 226 0
-220 213 178 0
-220 178 227 0
-220 213 227 0
-221 214 179 0
-221 179 228 0
-221 214 228 0
-222 215 180 0
-222 180 229 0
-222 215 229 0
-223 216 181 0
-223 181 230 0
-223 216 230 0
-224 217 182 0
-224 182 231 0
-224 217 231 0
-218 -176 -211 -225 0
-219 -177 -212 -226 0
-220 -178 -213 -227 0
-221 -179 -214 -228 0
-222 -180 -215 -229 0
-223 -181 -216 -230 0
-224 -182 -217 -231 0
230 0
-225 0
-226 0
-227 0
-228 0
-229 0
-231 0
223 188 237 0
-223 -188 0
-223 -237 0
-188 -237 0
236 0
-232 0
-233 0
-234 0
-235 0
-237 0
-238 0
229 194 243 0
-229 -194 0
-229 -243 0
-194 -243 0
240 0
-239 0
-241 0
-242 0
-243 0
-244 0
-245 0
233 198 247 0
-233 -198 0
-233 -247 0
-198 -247 0
-246 -247 0
-246 -248 0
-246 -249 0
-246 -250 0
-246 -251 0
-246 -252 0
-247 -248 0
-247 -249 0
-247 -250 0
-247 -251 0
-247 -252 0
-248 -249 0
-248 -250 0
-248 -251 0
-248 -252 0
-249 -250 0
-249 -251 0
-249 -252 0
-250 -251 0
-250 -252 0
-251 -252 0
-246 204 0
-246 239 0
-247 205 0
-247 240 0
-248 206 0
-248 241 0
-249 207 0
-249 242 0
-250 208 0
-250 243 0
-251 209 0
-251 244 0
-252 210 0
-252 245 0
8 50 218 0
57 183 0
22 64 106 148 190 0
51 58 65 79 0
86 107 121 0
128 149 156 163 0
170 184 191 205 0
23 65 107 149 191 0
24 66 108 150 192 0
61 187 0
174 188 195 209 0
28 70 112 154 196 0